\ This file has been generated by DOcplex
\ ENCODING=ISO-8859-1
\Problem name: CPLEX

Minimize
 obj: - 4 b_0 - 2 b_1 - 5 b_2 + 6 b_3 + 8 b_4 + 3 b_5 + 20 b_6 + 10 b_7 + 20 f_0
      + f_1 - 4 f_2 + 11
Subject To
 lin_eq_0: - 4 b_0 + 10 b_1 + 11 b_2 <= 11
 lin_eq_1: 14 b_3 + 10 b_4 <= 14
 lin_eq_2: - 9 b_2 + 14 b_5 <= 5
 lin_eq_3: b_4 - 6 f_0 <= -144
 lin_eq_4: 19 b_3 + 7 b_4 - 3 f_0 <= -53
 lin_eq_5: - 6 b_2 + 16 b_5 + 17 f_1 <= 1217

Bounds
 0 <= b_0 <= 1
 0 <= b_1 <= 1
 0 <= b_2 <= 1
 0 <= b_3 <= 1
 0 <= b_4 <= 1
 0 <= b_5 <= 1
 0 <= b_6 <= 1
 0 <= b_7 <= 1
 5 <= f_0 <= 54
 3 <= f_1 <= 79
 2 <= f_2 <= 89

Binaries
 b_0 b_1 b_2 b_3 b_4 b_5 b_6 b_7
End
